55 6775
52 7407
96 2168
65 8715
24 9055
87 1922
81 3011
85 3142
100 4053
28 4630
13 5764
93 3541
32 9354
79 3595
72 5865
40 3456
22 7791
84 8049
57 4368
82 3129
99 2449
61 2121
53 8502
45 1685
54 4704
57 6895
11 2374
64 2282
12 4187
26 7785
77 3557
37 4826
89 7440
22 8852
28 5159
26 8799
50 7991
15 9741
19 9464
73 6247
53 2207
72 4669
58 9759
14 2084
62 4094
84 7831
74 2276
54 6377
98 2352
66 4911
41 1918
21 8461
37 8409
92 2628
53 9901
97 6903
41 4450
41 1705
85 6539
70 9978
43 5873
25 9006
10 6103
39 3720
76 5658
73 1310
77 7303
50 3452
24 5812
16 5403
